! C2H7O3Cl | Equilibrium Geometry | wB97X-D/6-21G+(d,p)
! Constraints applied to hydrate
! Removed carbon - oxygen constraint
 $BASIS GBASIS=N21 NGAUSS=6 NPFUNC=1 DIFFSP=.t. $END
 $CONTRL SCFTYP=RHF RUNTYP=SADPOINT NZVAR=33 $END
 $CONTRL DFTTYP=wB97X-D $END
 $SCF DIIS=.t. DAMP=.t. $END
 $STATPT OPTTOL=0.00001 NSTEP=200 IHREP=20 HSSEND=.t. $END
 $ZMAT DLC=.t. AUTO=.t. $END
 $ZMAT NONVDW(1)=8,13, 10,7, 7,3, 8,10 $END
!$ZMAT IFZMAT(1)=1,10,7, 1,8,13 FVALUE(1)=1.2, 1.2 $END
 $FORCE METHOD=SEMINUM PROJCT=.t. $END
 $PCM SOLVNT=WATER $END
 $SYSTEM MWORDS=25 MEMDDI=24 $END
!$CONTRL EXETYP=CHECK $END

 $DATA
Chloroacetaldehyde hydrate and water
C1
Cl   17.0   3.06169   0.66210   0.42428
C     6.0   2.71753   0.17271  -1.36143
C     6.0   3.42475   1.16142  -2.26971
O     8.0   2.85203   2.41681  -2.31157
H     1.0   1.63659   0.21702  -1.47476
H     1.0   3.11109  -0.83491  -1.46473
O     8.0   3.32223   0.53147  -3.73519
O     8.0   3.56544   2.69950  -4.52631
H     1.0   3.11587   3.12871  -5.25936
H     1.0   3.45855   1.52556  -4.39337
H     1.0   2.47658   0.08556  -3.89204
H     1.0   4.50836   1.14894  -2.14685
H     1.0   3.17342   2.84168  -3.40110
 $END

 $HESS
ENERGY IS     -765.8495917717 E(NUC) IS      316.7050241416
 1  1 2.74496976E-02 8.46943170E-03 2.55166011E-02-3.33169512E-02-4.13530433E-03
 1  2-1.42903367E-02 1.57409066E-03 1.79083425E-03 6.45118708E-03 5.26993498E-04
 1  3 6.12785403E-04-4.41378656E-04 1.01491421E-03-7.42708866E-03-2.50528896E-02
 1  4 2.11571115E-03 6.56193484E-04 4.31665528E-03 2.67248297E-04-5.87624363E-04
 1  5 2.60478544E-03 3.17796807E-05-1.64531908E-04-1.61825075E-04-2.29113029E-06
 1  6-4.03609222E-06-1.94319036E-06 1.06600127E-04 3.97236111E-04 1.22687577E-04
 1  7-2.94462095E-04-1.49504285E-04 6.08990288E-04 6.18922272E-04 5.74072433E-04
 1  8 6.14864408E-05-9.70834465E-05-3.29096489E-05 2.60052171E-04
 2  1 8.46943170E-03 3.44578801E-02 3.80468297E-02-3.60915918E-03-3.53779065E-02
 2  2-2.25689586E-02 1.93127691E-03 1.07298660E-03 8.94017431E-03-4.29381585E-04
 2  3 7.40971926E-05 2.46506332E-03 5.16314865E-04-2.81061811E-04-3.95088540E-03
 2  4-7.27019497E-03-9.16226382E-04-2.52964020E-02-1.81921021E-04 5.58369895E-04
 2  5 1.78683717E-03-1.26470223E-04 2.65892880E-05 2.59605979E-04-1.80053626E-05
 2  6 4.37248522E-05 4.30035296E-05-2.22818867E-05-1.57379708E-04 2.24975352E-04
 2  7-5.33123316E-05-5.24947725E-04 6.64200920E-04 5.90414425E-04 5.55136873E-04
 2  8-3.11433764E-04 2.04292583E-04 4.64041717E-04-3.10193706E-04
 3  1 2.55166011E-02 3.80468297E-02 1.68514301E-01-1.45220198E-02-2.20171493E-02
 3  2-9.66051672E-02-1.14921199E-02-1.64809363E-02-2.96609863E-02 5.85877625E-04
 3  3 2.18851134E-03 4.51691844E-04 1.45340700E-03-5.58307222E-03-2.00529424E-02
 3  4-5.42444327E-03-1.26408779E-04-2.01104406E-02 2.83391607E-03 6.64174114E-03
 3  5-7.06869526E-03 4.09256812E-04 2.86570147E-03-5.79059614E-04-7.61341169E-06
 3  6 5.14803264E-05 1.55599747E-04-8.09986859E-04-5.19213593E-03 1.52747424E-03
 3  7 9.02832472E-04 2.89708812E-04 2.23910467E-03 6.74227776E-04-1.85387482E-04
 3  8 1.20928461E-03-1.16559486E-04-4.81876028E-04-2.10662804E-05
 4  1-3.33169512E-02-3.60915918E-03-1.45220198E-02 5.98055488E-01-6.94691840E-02
 4  2-1.78476321E-02-1.26181533E-01-4.00052223E-02 4.62989631E-02 1.23980085E-02
 4  3 1.44975084E-02-1.26880578E-02-3.47930732E-01 1.74318791E-02-2.81561799E-02
 4  4-9.28634788E-02 1.00526506E-01 1.35423015E-02 1.25869735E-03 1.09378446E-03
 4  5-7.38736329E-03 5.27662944E-04 1.66122669E-04-1.16910307E-03 9.78869091E-05
 4  6-6.50256567E-06 2.40169487E-05-5.63796908E-04-1.61921200E-03-9.46155877E-04
 4  7 2.35894576E-03 8.49912443E-04-2.05362249E-03-1.25402572E-02-2.23335319E-02
 4  8 2.30299910E-02-1.29531439E-03 2.46938576E-03 1.88853841E-03
 5  1-4.13530433E-03-3.53779065E-02-2.20171493E-02-6.94691840E-02 5.50759696E-01
 5  2-2.18371066E-02-3.77757621E-02-1.17754673E-01 4.82002233E-02-8.98458343E-03
 5  3-4.02824992E-02 2.86343983E-02 1.19521223E-02-5.17653336E-02 4.96455577E-03
 5  4 1.05128456E-01-3.10898445E-01-2.37819346E-02 2.51974329E-03 5.73306349E-03
 5  5-1.12170182E-02-1.46907542E-03 3.03675798E-03 5.34110625E-03-9.12391642E-05
 5  6 2.26386876E-04 1.77475368E-04-1.37288196E-04-4.61292104E-03-2.81606923E-04
 5  7 9.60247819E-04 2.21610157E-03-1.27960516E-03-8.32687363E-04 5.12232281E-04
 5  8 4.01586207E-03 2.33849146E-03-1.79612045E-03-1.09097065E-02
 6  1-1.42903367E-02-2.25689586E-02-9.66051672E-02-1.78476321E-02-2.18371066E-02
 6  2 3.07422266E-01 3.78371725E-02 5.41218334E-02-9.88062900E-02 6.49950591E-04
 6  3-2.60281306E-04 4.82449331E-03-2.77127356E-02 5.34312139E-03-4.40225318E-02
 6  4 1.33469707E-02-2.10554803E-02-4.22475103E-02 1.15147543E-02 6.89951626E-03
 6  5-2.99584343E-02-1.08612923E-03-1.00153466E-03 3.61041390E-03-8.11583439E-05
 6  6 5.92489248E-05-1.79867219E-04 1.86486735E-04-2.45458016E-04-2.44775469E-03
 6  7-1.41920306E-03 2.87286996E-04-2.52607592E-03-2.99730561E-03-5.72299374E-04
 6  8 4.34649646E-03 1.89453621E-03 7.91260297E-04-3.41092350E-03
 7  1 1.57409066E-03 1.93127691E-03-1.14921199E-02-1.26181533E-01-3.77757621E-02
 7  2 3.78371725E-02 6.61855867E-01-1.67207296E-03 7.66749857E-03-1.28663959E-01
 7  3 7.78920381E-02-4.89889534E-04-1.63748986E-02-2.59477077E-02 2.49687853E-02
 7  4 6.09925379E-03 1.03686525E-02-9.34760210E-03-7.43551009E-02-1.67995939E-02
 7  5 5.97343245E-03-5.05108772E-03-1.17211282E-03 1.34518751E-02-6.12038207E-04
 7  6 9.03623120E-04 4.09933681E-04 5.09921210E-03 2.56958182E-03 5.33156800E-04
 7  7 3.94068958E-04-7.13107908E-03-2.99337117E-02-3.33018273E-01-4.50184910E-03
 7  8-2.18109183E-02 9.23267338E-03 1.35280778E-03-1.77671497E-02
 8  1 1.79083425E-03 1.07298660E-03-1.64809363E-02-4.00052223E-02-1.17754673E-01
 8  2 5.41218334E-02-1.67207296E-03 4.43729391E-01-1.39494656E-01 6.66550549E-02
 8  3-1.97661225E-01 1.51372439E-02 2.33622445E-03-9.95943817E-05 2.70389747E-04
 8  4-1.57893411E-02-1.58057886E-02 1.78555005E-02-1.21635505E-02-4.53745127E-02
 8  5 4.46267369E-02 7.57399661E-03-1.50105083E-02-2.81963231E-02 8.04120476E-04
 8  6-2.19103418E-03-2.57376194E-03 3.70776567E-03 3.96006624E-02 1.49974187E-03
 8  7-2.46861508E-04-4.13146573E-03-8.96695969E-03-5.81598585E-03-5.03667739E-02
 8  8 1.24458337E-02-7.18373487E-03-3.60257034E-02 4.97798592E-02
 9  1 6.45118708E-03 8.94017431E-03-2.96609863E-02 4.62989631E-02 4.82002233E-02
 9  2-9.88062900E-02 7.66749857E-03-1.39494656E-01 3.16453879E-01-8.83650130E-03
 9  3 4.68284290E-02-8.95653881E-02-1.98406883E-03-6.35470794E-04 3.08314950E-03
 9  4-1.90858891E-03-4.76253585E-03 5.20973511E-03-1.05243316E-02 1.09808007E-02
 9  5-3.28139973E-02 4.51657159E-03-2.00071171E-02-1.01099075E-02 4.02970130E-04
 9  6-2.01040304E-03-1.17993211E-03 7.05715499E-03 2.79175116E-02-3.71161459E-02
 9  7-3.60910295E-03-2.25120705E-03-4.05604195E-04-2.66460515E-02 4.49453246E-03
 9  8-4.79575039E-02-1.88968706E-02 2.18278688E-02 2.28709015E-02
10  1 5.26993498E-04-4.29381585E-04 5.85877625E-04 1.23980085E-02-8.98458343E-03
10  2 6.49950591E-04-1.28663959E-01 6.66550549E-02-8.83650130E-03 1.41940254E-01
10  3-1.06909034E-01-3.88708583E-02 2.87576827E-03 1.35707256E-03-1.85394524E-03
10  4-4.29893966E-04-2.12202682E-03 2.20999872E-03 1.10808445E-02 7.38386361E-03
10  5 1.15494597E-02 1.01045195E-02-6.50112615E-03 2.31856633E-02-1.94218322E-03
10  6 2.32202548E-03 3.88348389E-03-7.20638373E-04 5.11497714E-04 4.66423099E-05
10  7-6.19634520E-04 1.08355496E-03 2.77028702E-03-8.48100082E-03 3.99933205E-02
10  8-7.67301725E-04-3.80634913E-02 5.65088442E-03 5.44866210E-03
11  1 6.12785403E-04 7.40971926E-05 2.18851134E-03 1.44975084E-02-4.02824992E-02
11  2-2.60281306E-04 7.78920381E-02-1.97661225E-01 4.68284290E-02-1.06909034E-01
11  3 3.17517099E-01-2.24256517E-02 7.54114973E-04 2.83222299E-03-1.77530226E-03
11  4-2.50865969E-03-3.17145167E-03 5.12696506E-03 7.31338123E-03-3.50355504E-02
11  5-5.51815042E-02-1.39364239E-02 2.03862497E-02 4.76889908E-02-1.43447355E-03
11  6 3.94513340E-03 1.64189890E-03-2.98798463E-03-2.36723916E-02 1.12808175E-02
11  7 2.67563871E-03-3.62786118E-04-1.48045819E-03 1.14445488E-02-1.47654997E-02
11  8-3.03230238E-03 1.25749771E-02-2.98175091E-02-3.06052267E-02
12  1-4.41378656E-04 2.46506332E-03 4.51691844E-04-1.26880578E-02 2.86343983E-02
12  2 4.82449331E-03-4.89889534E-04 1.51372439E-02-8.95653881E-02-3.88708583E-02
12  3-2.24256517E-02 1.89311471E-01-8.32465883E-04-1.59175516E-03 4.82588539E-04
12  4 2.91387261E-03 3.59858287E-03-4.09494472E-03 1.28083718E-02-3.76018178E-02
12  5-1.18699985E-03 3.10513521E-02 5.54100093E-03-1.10591605E-01 6.58579110E-03
12  6-6.64305215E-03-6.20271639E-03-1.19926772E-03 1.82869786E-02-2.33402926E-03
12  7 1.38883029E-03 8.68108609E-05 1.04166087E-03-1.74280574E-03 5.91666041E-03
12  8 8.48973211E-03 1.53063842E-03-1.13926362E-02 9.39304832E-03
13  1 1.01491421E-03 5.16314865E-04 1.45340700E-03-3.47930732E-01 1.19521223E-02
13  2-2.77127356E-02-1.63748986E-02 2.33622445E-03-1.98406883E-03 2.87576827E-03
13  3 7.54114973E-04-8.32465883E-04 3.65161095E-01-1.24560858E-02 2.63812782E-02
13  4-5.76007326E-03-2.01186716E-03-1.76746325E-04 1.35895600E-03 3.82373594E-04
13  5 1.72702685E-04 4.06777904E-05 5.78924277E-05-3.13516995E-04 4.75671665E-06
13  6-1.42693826E-06-2.69569170E-05-3.94186671E-05-5.86851739E-05 5.61659093E-05
13  7-7.38219764E-04-9.03296117E-05 1.10670621E-03 3.82270018E-04-1.35451765E-03
13  8 1.54247678E-03 2.94256852E-06-1.71621646E-05 3.28774654E-04
14  1-7.42708866E-03-2.81061811E-04-5.58307222E-03 1.74318791E-02-5.17653336E-02
14  2 5.34312139E-03-2.59477077E-02-9.95943817E-05-6.35470794E-04 1.35707256E-03
14  3 2.83222299E-03-1.59175516E-03-1.24560858E-02 4.82411078E-02-2.98996076E-03
14  4 2.71536478E-02 2.68684774E-03 3.63657977E-03 7.49553470E-04-1.45596826E-04
14  5-9.65180305E-04 1.04696221E-04-9.37341748E-05-2.57778097E-04 1.51294631E-05
14  6-1.78479743E-06-3.76117752E-05-1.04807792E-04 4.83310801E-05-8.62327694E-05
14  7 3.73890950E-04 5.20334534E-04 1.00662649E-04-1.21067190E-03-2.10406536E-03
14  8 2.57619492E-03-3.95714998E-05 1.61073934E-04 4.88426881E-04
15  1-2.50528896E-02-3.95088540E-03-2.00529424E-02-2.81561799E-02 4.96455577E-03
15  2-4.40225318E-02 2.49687853E-02 2.70389747E-04 3.08314950E-03-1.85394524E-03
15  3-1.77530226E-03 4.82588539E-04 2.63812782E-02-2.98996076E-03 5.90246832E-02
15  4 3.16587915E-03 9.40058866E-04 2.76312690E-03-3.00460652E-04 1.84140427E-04
15  5 1.67722770E-03-6.86179770E-05-8.49709936E-05 6.27470967E-05-1.49696118E-05
15  6 3.10869112E-06 1.38626189E-05 8.25518237E-05 2.19469332E-04 7.57803858E-05
15  7-6.47211104E-05-3.13448523E-04-8.14682107E-04 8.81255216E-04 2.65764147E-03
15  8-2.21508851E-03 3.19110934E-05-1.13043041E-04-7.56642716E-05
16  1 2.11571115E-03-7.27019497E-03-5.42444327E-03-9.28634788E-02 1.05128456E-01
16  2 1.33469707E-02 6.09925379E-03-1.57893411E-02-1.90858891E-03-4.29893966E-04
16  3-2.50865969E-03 2.91387261E-03-5.76007326E-03 2.71536478E-02 3.16587915E-03
16  4 8.99944599E-02-1.07757503E-01-1.01914638E-02 1.56380617E-04 3.27554997E-04
16  5-6.92317874E-04-2.35448397E-04 2.34475671E-04 5.98115213E-04-3.75525227E-06
16  6 1.71115908E-05-1.44104149E-05-7.38979333E-05-3.46140787E-04-4.41412549E-05
16  7 1.88859823E-04 6.53415068E-04-1.60380502E-04 1.72153867E-04 3.90818963E-04
16  8-6.22556017E-04 6.40544598E-04-2.38904251E-04-9.66658142E-04
17  1 6.56193484E-04-9.16226382E-04-1.26408779E-04 1.00526506E-01-3.10898445E-01
17  2-2.10554803E-02 1.03686525E-02-1.58057886E-02-4.76253585E-03-2.12202682E-03
17  3-3.17145167E-03 3.59858287E-03-2.01186716E-03 2.68684774E-03 9.40058866E-04
17  4-1.07757503E-01 3.26171922E-01 2.23876981E-02 3.98858249E-04 2.34665384E-03
17  5-9.10836969E-04-2.82450679E-04 6.72699688E-04 1.07389210E-03-2.67708917E-05
17  6 8.04441636E-05 7.79806635E-05-1.89129218E-04-9.77002830E-04 2.81850090E-04
17  7 2.92602934E-04-5.94619544E-04 8.79570700E-04-3.82440722E-04 5.02907050E-04
17  8-9.74280036E-05 5.32101412E-04-9.24830103E-05-2.29405715E-03
18  1 4.31665528E-03-2.52964020E-02-2.01104406E-02 1.35423015E-02-2.37819346E-02
18  2-4.22475103E-02-9.34760210E-03 1.78555005E-02 5.20973511E-03 2.20999872E-03
18  3 5.12696506E-03-4.09494472E-03-1.76746325E-04 3.63657977E-03 2.76312690E-03
18  4-1.01914638E-02 2.23876981E-02 5.81349031E-02-3.47253033E-04-1.01426253E-04
18  5 7.54243980E-05 4.91141052E-04-1.69112256E-04-1.52015919E-03 2.07728179E-05
18  6-1.02431666E-04 3.79294115E-05-3.34785022E-05 3.09541848E-04 1.32307105E-04
18  7-1.63076572E-04 6.45854785E-04-6.16127537E-04 3.20937559E-04-5.81821707E-04
18  8-1.30263542E-04-6.38772421E-04 8.23626632E-05 2.36890225E-03
19  1 2.67248297E-04-1.81921021E-04 2.83391607E-03 1.25869735E-03 2.51974329E-03
19  2 1.15147543E-02-7.43551009E-02-1.21635505E-02-1.05243316E-02 1.10808445E-02
19  3 7.31338123E-03 1.28083718E-02 1.35895600E-03 7.49553470E-04-3.00460652E-04
19  4 1.56380617E-04 3.98858249E-04-3.47253033E-04 4.85490556E-01 2.28707826E-01
19  5 6.88362330E-02 1.42507701E-02-1.41810478E-02 8.73556190E-03 1.33358878E-04
19  6-4.36863447E-03-1.35093441E-03-3.65557999E-02-6.02514258E-03-9.46057339E-03
19  7-4.01507309E-01-1.89906399E-01-5.38335253E-02-8.55550992E-04-1.12340978E-02
19  8-3.04721214E-02-7.33772617E-04-1.65642361E-03 1.55415261E-03
20  1-5.87624363E-04 5.58369895E-04 6.64174114E-03 1.09378446E-03 5.73306349E-03
20  2 6.89951626E-03-1.67995939E-02-4.53745127E-02 1.09808007E-02 7.38386361E-03
20  3-3.50355504E-02-3.76018178E-02 3.82373594E-04-1.45596826E-04 1.84140427E-04
20  4 3.27554997E-04 2.34665384E-03-1.01426253E-04 2.28707826E-01 3.15371314E-01
20  5 1.05040223E-02-7.48691289E-03-1.00169627E-01 3.73478271E-02-3.36320777E-03
20  6-9.12125704E-03-5.03751788E-03 4.03261414E-03-1.45075823E-02 7.41628547E-04
20  7-2.13427823E-01-1.19109809E-01-2.32109714E-02-1.29459210E-03-2.48055416E-03
20  8-1.48233139E-02 1.02678016E-03 1.95012692E-03 7.48575120E-03
21  1 2.60478544E-03 1.78683717E-03-7.06869526E-03-7.38736329E-03-1.12170182E-02
21  2-2.99584343E-02 5.97343245E-03 4.46267369E-02-3.28139973E-02 1.15494597E-02
21  3-5.51815042E-02-1.18699985E-03 1.72702685E-04-9.65180305E-04 1.67722770E-03
21  4-6.92317874E-04-9.10836969E-04 7.54243980E-05 6.88362330E-02 1.05040223E-02
21  5 2.08243220E-01 3.14502016E-03 6.72061743E-02 8.02549130E-03 7.86389208E-04
21  6 3.13112628E-03 4.45964914E-03-2.59495223E-02-2.88510619E-02-3.79014126E-02
21  7-6.74282090E-02-2.96818260E-02-6.21437208E-02-1.61460322E-03-8.12777275E-03
21  8-2.18285388E-02 9.99986498E-03 7.66224867E-03-2.95814116E-02
22  1 3.17796807E-05-1.26470223E-04 4.09256812E-04 5.27662944E-04-1.46907542E-03
22  2-1.08612923E-03-5.05108772E-03 7.57399661E-03 4.51657159E-03 1.01045195E-02
22  3-1.39364239E-02 3.10513521E-02 4.06777904E-05 1.04696221E-04-6.86179770E-05
22  4-2.35448397E-04-2.82450679E-04 4.91141052E-04 1.42507701E-02-7.48691289E-03
22  5 3.14502016E-03 1.87887181E-01-1.10700423E-01 1.55251321E-01-1.30687271E-01
22  6 1.09367561E-01-1.77920604E-01-3.72400283E-02-5.02525494E-03-7.25185502E-03
22  7 6.19442072E-04 2.90446307E-03-1.91957428E-03 7.06074070E-04-7.03264786E-04
22  8 8.54878534E-05-4.09696761E-02 1.97771847E-02-6.76759717E-03
23  1-1.64531908E-04 2.65892880E-05 2.86570147E-03 1.66122669E-04 3.03675798E-03
23  2-1.00153466E-03-1.17211282E-03-1.50105083E-02-2.00071171E-02-6.50112615E-03
23  3 2.03862497E-02 5.54100093E-03 5.78924277E-05-9.37341748E-05-8.49709936E-05
23  4 2.34475671E-04 6.72699688E-04-1.69112256E-04-1.41810478E-02-1.00169627E-01
23  5 6.72061743E-02-1.10700423E-01 2.93349200E-01-1.98755657E-01 1.23239121E-01
23  6-1.40039765E-01 1.69439204E-01-1.07318495E-02-1.59017437E-02-4.40161086E-02
23  7 2.72652431E-03-2.27537239E-03 7.51003115E-03 6.07318087E-05 6.30364915E-04
23  8 1.54531897E-03 1.69722402E-02-4.46019509E-02 9.96588888E-03
24  1-1.61825075E-04 2.59605979E-04-5.79059614E-04-1.16910307E-03 5.34110625E-03
24  2 3.61041390E-03 1.34518751E-02-2.81963231E-02-1.01099075E-02 2.31856633E-02
24  3 4.76889908E-02-1.10591605E-01-3.13516995E-04-2.57778097E-04 6.27470967E-05
24  4 5.98115213E-04 1.07389210E-03-1.52015919E-03 8.73556190E-03 3.73478271E-02
24  5 8.02549130E-03 1.55251321E-01-1.98755657E-01 4.88095769E-01-1.94981110E-01
24  6 1.63426416E-01-3.31094642E-01-1.18691446E-02-3.54809714E-03-4.49010994E-02
24  7-1.18594181E-03 2.43112765E-03-2.44116455E-03-1.34447820E-03 1.47978694E-03
24  8-9.64849101E-05 9.80702302E-03-2.82869770E-02 1.43231025E-03
25  1-2.29113029E-06-1.80053626E-05-7.61341169E-06 9.78869091E-05-9.12391642E-05
25  2-8.11583439E-05-6.12038207E-04 8.04120476E-04 4.02970130E-04-1.94218322E-03
25  3-1.43447355E-03 6.58579110E-03 4.75671665E-06 1.51294631E-05-1.49696118E-05
25  4-3.75525227E-06-2.67708917E-05 2.07728179E-05 1.33358878E-04-3.36320777E-03
25  5 7.86389208E-04-1.30687271E-01 1.23239121E-01-1.94981110E-01 1.27557140E-01
25  6-1.14473461E-01 1.87249960E-01-6.91937304E-04 1.26705241E-03 2.21588841E-03
25  7-4.28924165E-05-4.65499752E-04 7.05308077E-05 3.80209590E-05-8.05380557E-05
25  8 9.80207029E-05 6.15875095E-03-5.37078209E-03-2.28422716E-03
26  1-4.03609222E-06 4.37248522E-05 5.14803264E-05-6.50256567E-06 2.26386876E-04
26  2 5.92489248E-05 9.03623120E-04-2.19103418E-03-2.01040304E-03 2.32202548E-03
26  3 3.94513340E-03-6.64305215E-03-1.42693826E-06-1.78479743E-06 3.10869112E-06
26  4 1.71115908E-05 8.04441636E-05-1.02431666E-04-4.36863447E-03-9.12125704E-03
26  5 3.13112628E-03 1.09367561E-01-1.40039765E-01 1.63426416E-01-1.14473461E-01
26  6 1.38944824E-01-1.80772380E-01 1.52725432E-02 8.22858971E-03 1.53528081E-02
26  7 6.81882379E-05-1.50367450E-03 1.21885973E-03-1.02885460E-04 5.25385766E-05
26  8 1.25296976E-04-8.99974086E-03 1.33528881E-03 6.11447884E-03
27  1-1.94319036E-06 4.30035296E-05 1.55599747E-04 2.40169487E-05 1.77475368E-04
27  2-1.79867219E-04 4.09933681E-04-2.57376194E-03-1.17993211E-03 3.88348389E-03
27  3 1.64189890E-03-6.20271639E-03-2.69569170E-05-3.76117752E-05 1.38626189E-05
27  4-1.44104149E-05 7.79806635E-05 3.79294115E-05-1.35093441E-03-5.03751788E-03
27  5 4.45964914E-03-1.77920604E-01 1.69439204E-01-3.31094642E-01 1.87249960E-01
27  6-1.80772380E-01 3.37891607E-01 3.20901596E-03 6.90949064E-03-2.12830836E-03
27  7-2.23943936E-04-7.24197973E-05 2.97117625E-04-9.41718050E-05 1.41081692E-04
27  8 8.07490717E-05-1.51374914E-02 1.00679327E-02-2.03221972E-03
28  1 1.06600127E-04-2.22818867E-05-8.09986859E-04-5.63796908E-04-1.37288196E-04
28  2 1.86486735E-04 5.09921210E-03 3.70776567E-03 7.05715499E-03-7.20638373E-04
28  3-2.98798463E-03-1.19926772E-03-3.94186671E-05-1.04807792E-04 8.25518237E-05
28  4-7.38979333E-05-1.89129218E-04-3.34785022E-05-3.65557999E-02 4.03261414E-03
28  5-2.59495223E-02-3.72400283E-02-1.07318495E-02-1.18691446E-02-6.91937304E-04
28  6 1.52725432E-02 3.20901596E-03 6.81986879E-02-2.65574837E-04 1.61534792E-02
28  7-2.29983529E-03-1.65711226E-02 1.29622824E-02-8.08139365E-04 1.62465294E-04
28  8-1.22504717E-03 5.58966228E-03 7.83377722E-03 1.43143595E-03
29  1 3.97236111E-04-1.57379708E-04-5.19213593E-03-1.61921200E-03-4.61292104E-03
29  2-2.45458016E-04 2.56958182E-03 3.96006624E-02 2.79175116E-02 5.11497714E-04
29  3-2.36723916E-02 1.82869786E-02-5.86851739E-05 4.83310801E-05 2.19469332E-04
29  4-3.46140787E-04-9.77002830E-04 3.09541848E-04-6.02514258E-03-1.45075823E-02
29  5-2.88510619E-02-5.02525494E-03-1.59017437E-02-3.54809714E-03 1.26705241E-03
29  6 8.22858971E-03 6.90949064E-03-2.65574837E-04 2.04185452E-02 4.24727500E-02
29  7-2.00955232E-03-2.72087183E-03-7.64834275E-03-8.14998860E-05-8.35305032E-04
29  8-2.69679075E-03 1.06917648E-02-4.91253932E-03-4.79421560E-02
30  1 1.22687577E-04 2.24975352E-04 1.52747424E-03-9.46155877E-04-2.81606923E-04
30  2-2.44775469E-03 5.33156800E-04 1.49974187E-03-3.71161459E-02 4.66423099E-05
30  3 1.12808175E-02-2.33402926E-03 5.61659093E-05-8.62327694E-05 7.57803858E-05
30  4-4.41412549E-05 2.81850090E-04 1.32307105E-04-9.46057339E-03 7.41628547E-04
30  5-3.79014126E-02-7.25185502E-03-4.40161086E-02-4.49010994E-02 2.21588841E-03
30  6 1.53528081E-02-2.12830836E-03 1.61534792E-02 4.24727500E-02 1.02208299E-01
30  7 1.27534240E-03-6.08329032E-03 1.02608250E-02-1.69120305E-05 2.19089145E-04
30  8 1.00050026E-03-2.68497183E-03-2.16023627E-02 1.16326491E-02
31  1-2.94462095E-04-5.33123316E-05 9.02832472E-04 2.35894576E-03 9.60247819E-04
31  2-1.41920306E-03 3.94068958E-04-2.46861508E-04-3.60910295E-03-6.19634520E-04
31  3 2.67563871E-03 1.38883029E-03-7.38219764E-04 3.73890950E-04-6.47211104E-05
31  4 1.88859823E-04 2.92602934E-04-1.63076572E-04-4.01507309E-01-2.13427823E-01
31  5-6.74282090E-02 6.19442072E-04 2.72652431E-03-1.18594181E-03-4.28924165E-05
31  6 6.81882379E-05-2.23943936E-04-2.29983529E-03-2.00955232E-03 1.27534240E-03
31  7 4.00621356E-01 2.09345256E-01 6.95382245E-02 1.50816186E-03-2.98949103E-04
31  8 7.32015686E-05-1.77082000E-04-3.87927734E-04 9.24279746E-04
32  1-1.49504285E-04-5.24947725E-04 2.89708812E-04 8.49912443E-04 2.21610157E-03
32  2 2.87286996E-04-7.13107908E-03-4.13146573E-03-2.25120705E-03 1.08355496E-03
32  3-3.62786118E-04 8.68108609E-05-9.03296117E-05 5.20334534E-04-3.13448523E-04
32  4 6.53415068E-04-5.94619544E-04 6.45854785E-04-1.89906399E-01-1.19109809E-01
32  5-2.96818260E-02 2.90446307E-03-2.27537239E-03 2.43112765E-03-4.65499752E-04
32  6-1.50367450E-03-7.24197973E-05-1.65711226E-02-2.72087183E-03-6.08329032E-03
32  7 2.09345256E-01 1.29043156E-01 3.44363998E-02 3.04097050E-04 4.95531176E-04
32  8 1.95898093E-04-8.26170365E-04-1.04375340E-03 3.18643794E-05
33  1 6.08990288E-04 6.64200920E-04 2.23910467E-03-2.05362249E-03-1.27960516E-03
33  2-2.52607592E-03-2.99337117E-02-8.96695969E-03-4.05604195E-04 2.77028702E-03
33  3-1.48045819E-03 1.04166087E-03 1.10670621E-03 1.00662649E-04-8.14682107E-04
33  4-1.60380502E-04 8.79570700E-04-6.16127537E-04-5.38335253E-02-2.32109714E-02
33  5-6.21437208E-02-1.91957428E-03 7.51003115E-03-2.44116455E-03 7.05308077E-05
33  6 1.21885973E-03 2.97117625E-04 1.29622824E-02-7.64834275E-03 1.02608250E-02
33  7 6.95382245E-02 3.44363998E-02 6.28298288E-02 3.17390007E-04-2.16719812E-03
33  8-6.43010244E-03 5.32195087E-04-5.56647090E-05-1.29424493E-03
34  1 6.18922272E-04 5.90414425E-04 6.74227776E-04-1.25402572E-02-8.32687363E-04
34  2-2.99730561E-03-3.33018273E-01-5.81598585E-03-2.66460515E-02-8.48100082E-03
34  3 1.14445488E-02-1.74280574E-03 3.82270018E-04-1.21067190E-03 8.81255216E-04
34  4 1.72153867E-04-3.82440722E-04 3.20937559E-04-8.55550992E-04-1.29459210E-03
34  5-1.61460322E-03 7.06074070E-04 6.07318087E-05-1.34447820E-03 3.80209590E-05
34  6-1.02885460E-04-9.41718050E-05-8.08139365E-04-8.14998860E-05-1.69120305E-05
34  7 1.50816186E-03 3.04097050E-04 3.17390007E-04 3.53006177E-01-2.22631684E-03
34  8 2.96657385E-02-7.32819046E-04-4.67390854E-04 2.58928971E-03
35  1 5.74072433E-04 5.55136873E-04-1.85387482E-04-2.23335319E-02 5.12232281E-04
35  2-5.72299374E-04-4.50184910E-03-5.03667739E-02 4.49453246E-03 3.99933205E-02
35  3-1.47654997E-02 5.91666041E-03-1.35451765E-03-2.10406536E-03 2.65764147E-03
35  4 3.90818963E-04 5.02907050E-04-5.81821707E-04-1.12340978E-02-2.48055416E-03
35  5-8.12777275E-03-7.03264786E-04 6.30364915E-04 1.47978694E-03-8.05380557E-05
35  6 5.25385766E-05 1.41081692E-04 1.62465294E-04-8.35305032E-04 2.19089145E-04
35  7-2.98949103E-04 4.95531176E-04-2.16719812E-03-2.22631684E-03 6.71579936E-02
35  8 3.04643010E-04 1.61945593E-03 6.52132818E-04-3.58151635E-03
36  1 6.14864408E-05-3.11433764E-04 1.20928461E-03 2.30299910E-02 4.01586207E-03
36  2 4.34649646E-03-2.18109183E-02 1.24458337E-02-4.79575039E-02-7.67301725E-04
36  3-3.03230238E-03 8.48973211E-03 1.54247678E-03 2.57619492E-03-2.21508851E-03
36  4-6.22556017E-04-9.74280036E-05-1.30263542E-04-3.04721214E-02-1.48233139E-02
36  5-2.18285388E-02 8.54878534E-05 1.54531897E-03-9.64849101E-05 9.80207029E-05
36  6 1.25296976E-04 8.07490717E-05-1.22504717E-03-2.69679075E-03 1.00050026E-03
36  7 7.32015686E-05 1.95898093E-04-6.43010244E-03 2.96657385E-02 3.04643010E-04
36  8 6.34997568E-02 3.46382755E-04-2.45919659E-04 3.57466380E-05
37  1-9.70834465E-05 2.04292583E-04-1.16559486E-04-1.29531439E-03 2.33849146E-03
37  2 1.89453621E-03 9.23267338E-03-7.18373487E-03-1.88968706E-02-3.80634913E-02
37  3 1.25749771E-02 1.53063842E-03 2.94256852E-06-3.95714998E-05 3.19110934E-05
37  4 6.40544598E-04 5.32101412E-04-6.38772421E-04-7.33772617E-04 1.02678016E-03
37  5 9.99986498E-03-4.09696761E-02 1.69722402E-02 9.80702302E-03 6.15875095E-03
37  6-8.99974086E-03-1.51374914E-02 5.58966228E-03 1.06917648E-02-2.68497183E-03
37  7-1.77082000E-04-8.26170365E-04 5.32195087E-04-7.32819046E-04 1.61945593E-03
37  8 3.46382755E-04 6.04529171E-02-2.89089422E-02 1.33397946E-02
38  1-3.29096489E-05 4.64041717E-04-4.81876028E-04 2.46938576E-03-1.79612045E-03
38  2 7.91260297E-04 1.35280778E-03-3.60257034E-02 2.18278688E-02 5.65088442E-03
38  3-2.98175091E-02-1.13926362E-02-1.71621646E-05 1.61073934E-04-1.13043041E-04
38  4-2.38904251E-04-9.24830103E-05 8.23626632E-05-1.65642361E-03 1.95012692E-03
38  5 7.66224867E-03 1.97771847E-02-4.46019509E-02-2.82869770E-02-5.37078209E-03
38  6 1.33528881E-03 1.00679327E-02 7.83377722E-03-4.91253932E-03-2.16023627E-02
38  7-3.87927734E-04-1.04375340E-03-5.56647090E-05-4.67390854E-04 6.52132818E-04
38  8-2.45919659E-04-2.89089422E-02 1.13727433E-01 2.17386429E-02
39  1 2.60052171E-04-3.10193706E-04-2.10662804E-05 1.88853841E-03-1.09097065E-02
39  2-3.41092350E-03-1.77671497E-02 4.97798592E-02 2.28709015E-02 5.44866210E-03
39  3-3.06052267E-02 9.39304832E-03 3.28774654E-04 4.88426881E-04-7.56642716E-05
39  4-9.66658142E-04-2.29405715E-03 2.36890225E-03 1.55415261E-03 7.48575120E-03
39  5-2.95814116E-02-6.76759717E-03 9.96588888E-03 1.43231025E-03-2.28422716E-03
39  6 6.11447884E-03-2.03221972E-03 1.43143595E-03-4.79421560E-02 1.16326491E-02
39  7 9.24279746E-04 3.18643794E-05-1.29424493E-03 2.58928971E-03-3.58151635E-03
39  8 3.57466380E-05 1.33397946E-02 2.17386429E-02-1.13617166E-02
 $END
