! C2H7O3Cl | Equilibrium Geometry | wB97X-D/6-21G+(d,p)
! Constraints applied to hydrate
! Removed carbon - oxygen constraint
 $BASIS GBASIS=N21 NGAUSS=6 NPFUNC=1 DIFFSP=.t. $END
 $CONTRL SCFTYP=RHF RUNTYP=IRC NZVAR=33 $END
 $CONTRL DFTTYP=wB97X-D $END
 $IRC saddle=.t. tsengy=.t. forwrd=.f. $END
 $IRC npoint=200 stride=0.1 opttol=0.00005 $END
 $SCF DIIS=.t. DAMP=.t. $END
!$STATPT OPTTOL=0.00001 NSTEP=200 IHREP=20 HSSEND=.t. $END
 $ZMAT DLC=.t. AUTO=.t. $END
 $ZMAT NONVDW(1)=8,13, 10,7, 7,3, 8,10 $END
!$ZMAT IFZMAT(1)=1,10,7, 1,8,13 FVALUE(1)=1.2, 1.2 $END
 $FORCE METHOD=SEMINUM PROJCT=.t. $END
 $PCM SOLVNT=WATER $END
 $SYSTEM MWORDS=25 MEMDDI=24 $END
!$CONTRL EXETYP=CHECK $END

 $DATA
Chloroacetaldehyde hydrate and water
C1
Cl   17.0   3.04852   0.63599   0.44793
C     6.0   2.72839   0.18442  -1.35783
C     6.0   3.43059   1.21337  -2.23101
O     8.0   2.87600   2.43864  -2.28907
H     1.0   1.64766   0.21608  -1.47708
H     1.0   3.13936  -0.81426  -1.47725
O     8.0   3.32736   0.50615  -3.74987
O     8.0   3.54883   2.70407  -4.59713
H     1.0   3.08923   3.14737  -5.31765
H     1.0   3.45086   1.52665  -4.44364
H     1.0   2.47158   0.07658  -3.89336
H     1.0   4.51845   1.16612  -2.14737
H     1.0   3.22329   2.92472  -3.60033
 $END

 $HESS
ENERGY IS     -765.8490165508 E(NUC) IS      313.2644295714
 1  1 2.59033170E-02 7.00110725E-03 2.35169784E-02-3.17765617E-02-3.44427797E-03
 1  2-1.26398442E-02 1.85185713E-03 2.43292996E-03 6.25604008E-03-1.32849908E-04
 1  3-2.74181632E-04-5.43399318E-04 1.82081784E-03-6.76034190E-03-2.50751427E-02
 1  4 2.02238865E-03 4.95252323E-04 4.79890818E-03 9.46501162E-05-6.99450202E-04
 1  5 2.18301713E-03-6.47337395E-04-1.37212052E-03 7.63020031E-04 1.65300082E-03
 1  6 3.97595356E-04-8.74341857E-04 2.83553626E-04 7.05924473E-04 5.15252832E-04
 1  7-4.02549359E-04-2.11402937E-04 9.49950268E-04 5.30615100E-04 6.60066400E-04
 1  8-1.27651054E-04-1.20090197E-03 1.06889939E-03 2.77212168E-04
 2  1 7.00110725E-03 3.26014199E-02 3.44313420E-02-2.70618847E-03-3.35904048E-02
 2  2-2.02603066E-02 1.74235040E-03-8.70266547E-05 9.53906950E-03-4.13659477E-04
 2  3 1.57646744E-03 2.64867033E-03 4.53814398E-04-2.01496644E-04-3.86406890E-03
 2  4-6.73438632E-03-5.40972242E-04-2.46504204E-02-5.07718080E-04-4.20310049E-04
 2  5 6.26875543E-04-1.34227969E-03-1.47052144E-04-6.99228375E-04 3.08985930E-05
 2  6 6.85986920E-04 2.35969456E-04 9.47699445E-04 1.07362106E-03 1.59000729E-03
 2  7-2.98242096E-05-7.29247663E-04 1.00875693E-03 5.67346195E-04 4.03811849E-04
 2  8-3.51953048E-04 9.90839962E-04-6.24796986E-04-2.54713720E-04
 3  1 2.35169784E-02 3.44313420E-02 1.66285348E-01-1.35208040E-02-2.01932522E-02
 3  2-9.36379950E-02-1.14613799E-02-1.61816471E-02-2.98407334E-02 9.69438595E-04
 3  3 3.02503940E-03 5.40522066E-04 1.81814132E-03-5.16889788E-03-2.03345992E-02
 3  4-5.41377751E-03 2.68353297E-04-2.06096022E-02 2.63182040E-03 6.24885248E-03
 3  5-7.46088109E-03 5.35288803E-05 2.78034406E-03-9.35596092E-04 5.01338406E-05
 3  6 2.16690821E-04 2.25517509E-04-5.54858489E-04-4.99845966E-03 1.82076916E-03
 3  7 9.56895722E-04 3.44640476E-04 2.44626869E-03 9.67698801E-04-1.17379805E-04
 3  8 1.34936189E-03-1.38160302E-05-6.55625937E-04 1.51620142E-04
 4  1-3.17765617E-02-2.70618847E-03-1.35208040E-02 5.99642801E-01-7.20691092E-02
 4  2-1.66153879E-02-1.26401346E-01-3.74179452E-02 4.24385720E-02 1.48959526E-02
 4  3 1.51469168E-02-1.12150392E-02-3.47737476E-01 1.43317317E-02-2.91071535E-02
 4  4-9.75146811E-02 1.04524721E-01 1.54008111E-02 5.28986253E-04 3.65183899E-04
 4  5-7.49202969E-03-4.07965953E-05 2.10805696E-04-1.23562765E-03 4.72684002E-04
 4  6 2.75377120E-04-1.48747745E-04-5.64786965E-04-1.67776251E-03-3.10185245E-04
 4  7 2.16943375E-03 6.23882839E-04-2.05547408E-03-1.29685887E-02-2.28785648E-02
 4  8 2.24920830E-02-7.05621028E-04 1.27095087E-03 1.36898292E-03
 5  1-3.44427797E-03-3.35904048E-02-2.01932522E-02-7.20691092E-02 5.44719732E-01
 5  2-1.65868330E-02-3.76123465E-02-1.14567282E-01 4.49587823E-02-7.67700184E-03
 5  3-4.43166398E-02 2.55652574E-02 9.32573084E-03-5.12909634E-02 4.26477198E-03
 5  4 1.09226021E-01-3.06364022E-01-2.77599008E-02 2.02100869E-03 4.34543383E-03
 5  5-8.52613274E-03-1.37344112E-03 2.53953335E-03 5.13900991E-03-2.30532334E-04
 5  6 2.00455028E-04 2.13723143E-04 1.88768056E-05-4.06942598E-03-4.49134576E-04
 5  7 7.08591543E-04 2.12464522E-03-1.48405147E-03-4.60746049E-04 5.86389471E-04
 5  8 4.30668051E-03 1.56722659E-03-3.17450416E-04-9.44892054E-03
 6  1-1.26398442E-02-2.02603066E-02-9.36379950E-02-1.66153879E-02-1.65868330E-02
 6  2 2.92492174E-01 3.60292422E-02 5.43453097E-02-8.95307693E-02 1.12841289E-03
 6  3-8.12509929E-04 5.55745628E-03-2.93039311E-02 4.58801639E-03-4.35049491E-02
 6  4 1.54577416E-02-2.53141975E-02-4.20272973E-02 9.84489513E-03 2.99507783E-03
 6  5-2.86739986E-02-1.48704843E-03-1.08005422E-03 3.70685207E-03-2.77779236E-05
 6  6 2.13526563E-04-1.90220701E-04 4.13978747E-04 5.70713610E-04-2.15801765E-03
 6  7-1.42389953E-03-3.16669936E-05-3.00549319E-03-2.88875349E-03 4.78998593E-04
 6  8 4.40035049E-03 1.51237197E-03 8.93925607E-04-3.42809179E-03
 7  1 1.85185713E-03 1.74235040E-03-1.14613799E-02-1.26401346E-01-3.76123465E-02
 7  2 3.60292422E-02 6.59184996E-01-2.93433247E-02 1.67950290E-03-1.40881966E-01
 7  3 9.42477273E-02-4.26909577E-03-1.63929561E-02-2.62522369E-02 2.36582362E-02
 7  4 6.51381762E-03 1.14508369E-02-9.45033906E-03-6.35499687E-02-1.22976973E-02
 7  5 5.46749242E-03-3.81068506E-03 1.29668029E-06 1.30384983E-02-4.61472537E-04
 7  6 9.20193042E-04 4.26442412E-04 4.04089065E-03 1.18564732E-03 4.18719840E-04
 7  7 1.64108417E-04-7.09237036E-03-2.57458685E-02-3.27149076E-01 1.63642958E-03
 7  8-1.34782987E-02 6.89180019E-03 1.41349453E-03-1.63131524E-02
 8  1 2.43292996E-03-8.70266547E-05-1.61816471E-02-3.74179452E-02-1.14567282E-01
 8  2 5.43453097E-02-2.93433247E-02 4.50976560E-01-1.54792471E-01 8.11023933E-02
 8  3-2.38612014E-01 1.49176651E-02 2.84727326E-03 6.07774648E-04-8.16973545E-05
 8  4-1.53961240E-02-1.55316345E-02 1.64933460E-02-7.68984078E-03-2.83147091E-02
 8  5 5.82380694E-02 7.43819048E-03-1.75725787E-02-2.71475271E-02 7.86694282E-04
 8  6-2.30131119E-03-2.24984797E-03 3.62263772E-03 4.12111925E-02-1.19039445E-03
 8  7-1.96063374E-03-3.30754691E-03-4.12006784E-03 1.19210533E-03-4.92229333E-02
 8  8 1.49331810E-02-7.61435598E-03-2.32784906E-02 4.68360817E-02
 9  1 6.25604008E-03 9.53906950E-03-2.98407334E-02 4.24385720E-02 4.49587823E-02
 9  2-8.95307693E-02 1.67950290E-03-1.54792471E-01 2.62544265E-01-1.97187619E-02
 9  3 6.04069870E-02-8.50756448E-02-2.17808953E-03-9.47497310E-04 3.13623557E-03
 9  4-2.29917162E-03-5.76045886E-03 5.44115906E-03-6.15438953E-03 2.30059730E-02
 9  5-1.71695066E-04 4.42096021E-03-2.06249692E-02-9.73549508E-03 3.94220311E-04
 9  6-1.79223434E-03-1.69027423E-03 6.64447861E-03 2.90104716E-02-3.29812091E-02
 9  7-4.80917143E-03-1.58476545E-03 2.83427542E-03-1.48287784E-02 4.91974936E-03
 9  8-4.47610160E-02-1.18454117E-02 1.36613635E-02 1.98309017E-02
10  1-1.32849908E-04-4.13659477E-04 9.69438595E-04 1.48959526E-02-7.67700184E-03
10  2 1.12841289E-03-1.40881966E-01 8.11023933E-02-1.97187619E-02 1.36590402E-01
10  3-1.24653780E-01-1.42295588E-02 3.21490255E-03 1.95429272E-03-2.12462904E-03
10  4-3.44365061E-04-2.04147788E-03 2.20385259E-03 1.24661250E-02 8.18753954E-03
10  5 1.49664940E-02 1.00958139E-02-5.57627252E-03 1.15833253E-02-1.48506638E-03
10  6 8.80972127E-04 2.56063221E-03-7.18552187E-04 2.62469275E-03-1.52467283E-03
10  7-9.47114512E-04 1.26648252E-03 3.46742871E-03-8.74572963E-03 4.13167667E-02
10  8-1.05543700E-03-2.40075528E-02 3.02905247E-03 1.77347522E-03
11  1-2.74181632E-04 1.57646744E-03 3.02503940E-03 1.51469168E-02-4.43166398E-02
11  2-8.12509929E-04 9.42477273E-02-2.38612014E-01 6.04069870E-02-1.24653780E-01
11  3 3.45709866E-01-1.49582649E-02 4.36187637E-04 2.54434959E-03-1.47737731E-03
11  4-2.64317266E-03-3.71407986E-03 5.25497307E-03 6.07808228E-03-3.48835984E-02
11  5-5.67958699E-02-1.09331359E-02 1.98541917E-02 3.87901390E-02-1.20640017E-03
11  6 3.22937838E-03 1.47929167E-03-2.87219497E-03-2.45780183E-02 1.04034549E-02
11  7 3.15156934E-03-6.85283600E-04-2.46309759E-03 1.28788838E-02-1.45140599E-02
11  8-3.21940082E-03 1.06434986E-02-1.16105598E-02-3.96333646E-02
12  1-5.43399318E-04 2.64867033E-03 5.40522066E-04-1.12150392E-02 2.55652574E-02
12  2 5.55745628E-03-4.26909577E-03 1.49176651E-02-8.50756448E-02-1.42295588E-02
12  3-1.49582649E-02 1.24747447E-01-5.97818539E-04-1.37221737E-03 2.53074303E-04
12  4 2.74403844E-03 3.46839261E-03-3.42335978E-03 1.24427774E-02-3.29755516E-02
12  5-8.09544976E-04 2.06784267E-02 1.75184222E-03-8.28531130E-02 4.36249365E-03
12  6-5.66544841E-03-4.19388355E-03-1.50203229E-03 1.41665427E-02-1.98252362E-03
12  7 1.34217592E-03 1.75454123E-04 1.08063408E-03-1.35246475E-03 5.01537526E-03
12  8 1.02845739E-02-7.86050337E-03-1.27377175E-02 3.58743623E-02
13  1 1.82081784E-03 4.53814398E-04 1.81814132E-03-3.47737476E-01 9.32573084E-03
13  2-2.93039311E-02-1.63929561E-02 2.84727326E-03-2.17808953E-03 3.21490255E-03
13  3 4.36187637E-04-5.97818539E-04 3.64483115E-01-9.56878577E-03 2.79894996E-02
13  4-6.08855316E-03-2.30833230E-03-3.32824871E-04 1.24596328E-03 3.59452299E-04
13  5-2.46333875E-05-1.95866384E-04 1.10118637E-04-2.21052099E-04 1.35501763E-05
13  6 2.93977677E-05-2.94364140E-05-2.95236045E-05-9.23299706E-05 1.01802514E-04
13  7-6.39822639E-04-3.15212716E-05 1.13144565E-03 3.08431968E-04-1.53816428E-03
13  8 1.52674461E-03-2.58351154E-06-2.28412627E-05 1.20152263E-04
14  1-6.76034190E-03-2.01496644E-04-5.16889788E-03 1.43317317E-02-5.12909634E-02
14  2 4.58801639E-03-2.62522369E-02 6.07774648E-04-9.47497310E-04 1.95429272E-03
14  3 2.54434959E-03-1.37221737E-03-9.56878577E-03 4.73070214E-02-2.55046380E-03
14  4 2.67154089E-02 2.98986851E-03 3.87623223E-03 5.10064885E-04-1.56548123E-04
14  5-1.02791739E-03 2.12180108E-04-7.18055048E-05-1.21782535E-04-2.54869345E-05
14  6-2.74092853E-05-1.73688857E-05-1.13216460E-04-5.82707795E-05-1.17727717E-04
14  7 2.86345674E-04 4.58485067E-04 9.05404119E-05-1.28757036E-03-2.27831021E-03
14  8 2.56189423E-03-2.38578258E-06 1.77304778E-04 2.07189625E-04
15  1-2.50751427E-02-3.86406890E-03-2.03345992E-02-2.91071535E-02 4.26477198E-03
15  2-4.35049491E-02 2.36582362E-02-8.16973545E-05 3.13623557E-03-2.12462904E-03
15  3-1.47737731E-03 2.53074303E-04 2.79894996E-02-2.55046380E-03 5.86681610E-02
15  4 3.61413771E-03 1.00697547E-03 2.92644098E-03-7.64703766E-05 2.56803011E-04
15  5 1.54956533E-03 4.31459366E-05-1.47261922E-04 4.20324036E-05 3.08257587E-05
15  6 6.02789080E-06 6.76097323E-07 1.02221751E-04 2.67204562E-04 6.39672757E-05
15  7-5.99513948E-06-2.92942904E-04-8.22835361E-04 9.67529780E-04 2.68082953E-03
15  8-2.01124137E-03-1.62060822E-05-6.88002625E-05 3.34720551E-05
16  1 2.02238865E-03-6.73438632E-03-5.41377751E-03-9.75146811E-02 1.09226021E-01
16  2 1.54577416E-02 6.51381762E-03-1.53961240E-02-2.29917162E-03-3.44365061E-04
16  3-2.64317266E-03 2.74403844E-03-6.08855316E-03 2.67154089E-02 3.61413771E-03
16  4 9.48219971E-02-1.12200021E-01-1.24747634E-02 3.31172704E-04 7.15083982E-05
16  5-4.77918142E-04-3.91414280E-04 1.48998271E-04 5.59243713E-04 3.91514022E-05
16  6 6.64240169E-05-4.34965942E-05-2.91724920E-05-2.11851376E-04-2.18902961E-05
16  7 1.23136330E-04 5.70704524E-04-1.97506005E-04 9.66127366E-05 4.93032351E-04
16  8-5.66086710E-04 4.19909535E-04-1.06541848E-04-8.80551172E-04
17  1 4.95252323E-04-5.40972242E-04 2.68353297E-04 1.04524721E-01-3.06364022E-01
17  2-2.53141975E-02 1.14508369E-02-1.55316345E-02-5.76045886E-03-2.04147788E-03
17  3-3.71407986E-03 3.46839261E-03-2.30833230E-03 2.98986851E-03 1.00697547E-03
17  4-1.12200021E-01 3.20759022E-01 2.70179082E-02 1.60916716E-04 2.64801845E-03
17  5-9.77899354E-04-7.93911779E-05 7.45976074E-04 1.06112207E-03-1.09699598E-05
17  6 9.93212235E-05 6.84054288E-05-1.92581529E-04-1.04452526E-03 2.91088029E-04
17  7 2.89847636E-04-5.82185508E-04 9.05847114E-04-4.80760967E-04 5.08898565E-04
17  8-7.78982351E-05 3.91959955E-04 2.63148321E-05-1.95763821E-03
18  1 4.79890818E-03-2.46504204E-02-2.06096022E-02 1.54008111E-02-2.77599008E-02
18  2-4.20272973E-02-9.45033906E-03 1.64933460E-02 5.44115906E-03 2.20385259E-03
18  3 5.25497307E-03-3.42335978E-03-3.32824871E-04 3.87623223E-03 2.92644098E-03
18  4-1.24747634E-02 2.70179082E-02 5.83368843E-02-3.14569282E-04 5.45922581E-05
18  5-4.96198017E-04 3.60347031E-04-2.01118264E-04-1.36810791E-03 2.50554019E-05
18  6-8.97675906E-05 5.30830203E-05-2.26767893E-05 1.97284592E-04 1.95905757E-04
18  7-1.59958996E-04 5.63042988E-04-6.44260363E-04 3.53293276E-04-6.38370614E-04
18  8-2.23838243E-04-3.87135171E-04-1.17801693E-04 1.83919065E-03
19  1 9.46501162E-05-5.07718080E-04 2.63182040E-03 5.28986253E-04 2.02100869E-03
19  2 9.84489513E-03-6.35499687E-02-7.68984078E-03-6.15438953E-03 1.24661250E-02
19  3 6.07808228E-03 1.24427774E-02 1.24596328E-03 5.10064885E-04-7.64703766E-05
19  4 3.31172704E-04 1.60916716E-04-3.14569282E-04 4.87629016E-01 2.16592511E-01
19  5 6.13899199E-02 1.28211072E-02-1.16500066E-02 7.81993338E-03-1.07801921E-04
19  6-3.52110466E-03-1.13228884E-03-4.03763447E-02-3.08611100E-03-8.01780349E-03
19  7-4.09961394E-01-1.87018851E-01-5.21765548E-02-1.41511926E-03-9.96314810E-03
19  8-2.69039269E-02 2.93608630E-04-1.92580336E-03 6.46656962E-04
20  1-6.99450202E-04-4.20310049E-04 6.24885248E-03 3.65183899E-04 4.34543383E-03
20  2 2.99507783E-03-1.22976973E-02-2.83147091E-02 2.30059730E-02 8.18753954E-03
20  3-3.48835984E-02-3.29755516E-02 3.59452299E-04-1.56548123E-04 2.56803011E-04
20  4 7.15083982E-05 2.64801845E-03 5.45922581E-05 2.16592511E-01 2.65668975E-01
20  5 1.23156244E-02-5.86261676E-03-8.83233090E-02 3.68385927E-02-3.23109147E-03
20  6-7.80286919E-03-5.74432682E-03 6.72631327E-03-2.55975801E-03-1.04872265E-02
20  7-2.09921177E-01-1.12089255E-01-2.42002776E-02-1.87343859E-03-2.22352929E-03
20  8-1.40251448E-02 1.58296269E-03 4.11145822E-03 5.71701159E-03
21  1 2.18301713E-03 6.26875543E-04-7.46088109E-03-7.49202969E-03-8.52613274E-03
21  2-2.86739986E-02 5.46749242E-03 5.82380694E-02-1.71695066E-04 1.49664940E-02
21  3-5.67958699E-02-8.09544976E-04-2.46333875E-05-1.02791739E-03 1.54956533E-03
21  4-4.77918142E-04-9.77899354E-04-4.96198017E-04 6.13899199E-02 1.23156244E-02
21  5 1.55609868E-01 3.11468836E-03 6.47035302E-02 6.65276697E-03 8.79685619E-04
21  6 2.98119864E-03 4.98845659E-03-2.55554523E-02-4.45796159E-02-2.99513762E-02
21  7-5.88128270E-02-2.56009209E-02-5.40782424E-02-2.99504729E-03-6.45719799E-03
21  8-2.01890234E-02 7.35661034E-03 5.10025612E-03-2.69696973E-02
22  1-6.47337395E-04-1.34227969E-03 5.35288803E-05-4.07965953E-05-1.37344112E-03
22  2-1.48704843E-03-3.81068506E-03 7.43819048E-03 4.42096021E-03 1.00958139E-02
22  3-1.09331359E-02 2.06784267E-02-1.95866384E-04 2.12180108E-04 4.31459366E-05
22  4-3.91414280E-04-7.93911779E-05 3.60347031E-04 1.28211072E-02-5.86261676E-03
22  5 3.11468836E-03 2.13984044E-01-1.29731937E-01 1.23861154E-01-1.38620098E-01
22  6 1.11635451E-01-1.68586219E-01-3.58430019E-02-3.34992727E-03-6.44623499E-03
22  7 3.07024016E-04 2.95647218E-03-2.07528106E-03 5.95456141E-04-6.40495490E-04
22  8 1.53230763E-04-5.82542454E-02 3.10709308E-02 2.59093020E-02
23  1-1.37212052E-03-1.47052144E-04 2.78034406E-03 2.10805696E-04 2.53953335E-03
23  2-1.08005422E-03 1.29668029E-06-1.75725787E-02-2.06249692E-02-5.57627252E-03
23  3 1.98541917E-02 1.75184222E-03 1.10118637E-04-7.18055048E-05-1.47261922E-04
23  4 1.48998271E-04 7.45976074E-04-2.01118264E-04-1.16500066E-02-8.83233090E-02
23  5 6.47035302E-02-1.29731937E-01 3.10812724E-01-1.64826071E-01 1.25018442E-01
23  6-1.48037881E-01 1.60679963E-01-1.29847968E-02-1.38572937E-02-3.89955671E-02
23  7 2.65307238E-03-2.32953573E-03 7.08730153E-03 1.41857985E-04 5.29858502E-04
23  8 1.66161591E-03 3.30305417E-02-6.41428279E-02-1.27895548E-02
24  1 7.63020031E-04-6.99228375E-04-9.35596092E-04-1.23562765E-03 5.13900991E-03
24  2 3.70685207E-03 1.30384983E-02-2.71475271E-02-9.73549508E-03 1.15833253E-02
24  3 3.87901390E-02-8.28531130E-02-2.21052099E-04-1.21782535E-04 4.20324036E-05
24  4 5.59243713E-04 1.06112207E-03-1.36810791E-03 7.81993338E-03 3.68385927E-02
24  5 6.65276697E-03 1.23861154E-01-1.64826071E-01 5.76595622E-01-1.92513963E-01
24  6 1.64076720E-01-3.20197263E-01-1.08278088E-02-8.82076013E-03-4.51830823E-02
24  7-1.27451225E-03 2.57089822E-03-2.35754250E-03-1.36707644E-03 1.11634613E-03
24  8-2.90177532E-04 4.98148651E-02-4.79774586E-02-1.24076897E-01
25  1 1.65300082E-03 3.08985930E-05 5.01338406E-05 4.72684002E-04-2.30532334E-04
25  2-2.77779236E-05-4.61472537E-04 7.86694282E-04 3.94220311E-04-1.48506638E-03
25  3-1.20640017E-03 4.36249365E-03 1.35501763E-05-2.54869345E-05 3.08257587E-05
25  4 3.91514022E-05-1.09699598E-05 2.50554019E-05-1.07801921E-04-3.23109147E-03
25  5 8.79685619E-04-1.38620098E-01 1.25018442E-01-1.92513963E-01 1.34824219E-01
25  6-1.16490292E-01 1.81901777E-01-2.82978262E-04 1.67142816E-03 2.69785400E-03
25  7 8.37685718E-06-5.20753120E-04 9.51015370E-05 1.72906868E-05-1.91075892E-05
25  8 8.03474140E-05 3.92914460E-03-5.77282961E-03 2.02424575E-03
26  1 3.97595356E-04 6.85986920E-04 2.16690821E-04 2.75377120E-04 2.00455028E-04
26  2 2.13526563E-04 9.20193042E-04-2.30131119E-03-1.79223434E-03 8.80972127E-04
26  3 3.22937838E-03-5.66544841E-03 2.93977677E-05-2.74092853E-05 6.02789080E-06
26  4 6.64240169E-05 9.93212235E-05-8.97675906E-05-3.52110466E-03-7.80286919E-03
26  5 2.98119864E-03 1.11635451E-01-1.48037881E-01 1.64076720E-01-1.16490292E-01
26  6 1.44304202E-01-1.77856653E-01 1.48141067E-02 8.04694457E-03 1.39174609E-02
26  7 1.94767408E-04-1.43395224E-03 1.15781094E-03-9.77997831E-05 6.20904453E-05
26  8 1.06842745E-04-9.10508817E-03 2.97504438E-03 2.72782514E-03
27  1-8.74341857E-04 2.35969456E-04 2.25517509E-04-1.48747745E-04 2.13723143E-04
27  2-1.90220701E-04 4.26442412E-04-2.24984797E-03-1.69027423E-03 2.56063221E-03
27  3 1.47929167E-03-4.19388355E-03-2.94364140E-05-1.73688857E-05 6.76097323E-07
27  4-4.34965942E-05 6.84054288E-05 5.30830203E-05-1.13228884E-03-5.74432682E-03
27  5 4.98845659E-03-1.68586219E-01 1.60679963E-01-3.20197263E-01 1.81901777E-01
27  6-1.77856653E-01 3.29415567E-01 3.49841951E-03 9.95547213E-03-1.90082736E-03
27  7-1.65860189E-04-2.10706386E-05 3.15066608E-04-7.90147434E-05 8.19330955E-05
27  8 9.52724492E-05-1.73278657E-02 1.31745098E-02-6.92117094E-03
28  1 2.83553626E-04 9.47699445E-04-5.54858489E-04-5.64786965E-04 1.88768056E-05
28  2 4.13978747E-04 4.04089065E-03 3.62263772E-03 6.64447861E-03-7.18552187E-04
28  3-2.87219497E-03-1.50203229E-03-2.95236045E-05-1.13216460E-04 1.02221751E-04
28  4-2.91724920E-05-1.92581529E-04-2.26767893E-05-4.03763447E-02 6.72631327E-03
28  5-2.55554523E-02-3.58430019E-02-1.29847968E-02-1.08278088E-02-2.82978262E-04
28  6 1.48141067E-02 3.49841951E-03 7.05645673E-02-1.97590339E-03 1.45204174E-02
28  7-2.09949101E-03-1.67382260E-02 1.34445526E-02-7.32183334E-04 1.89356292E-04
28  8-1.18362493E-03 5.78702284E-03 8.55792883E-03 1.02238499E-03
29  1 7.05924473E-04 1.07362106E-03-4.99845966E-03-1.67776251E-03-4.06942598E-03
29  2 5.70713610E-04 1.18564732E-03 4.12111925E-02 2.90104716E-02 2.62469275E-03
29  3-2.45780183E-02 1.41665427E-02-9.23299706E-05-5.82707795E-05 2.67204562E-04
29  4-2.11851376E-04-1.04452526E-03 1.97284592E-04-3.08611100E-03-2.55975801E-03
29  5-4.45796159E-02-3.34992727E-03-1.38572937E-02-8.82076013E-03 1.67142816E-03
29  6 8.04694457E-03 9.95547213E-03-1.97590339E-03 9.83559363E-03 5.53423544E-02
29  7-1.44763297E-03-2.54490288E-03-6.24573705E-03-3.17157955E-04-4.95715315E-04
29  8-2.79228703E-03 5.97098372E-03-1.09594415E-02-4.20731838E-02
30  1 5.15252832E-04 1.59000729E-03 1.82076916E-03-3.10185245E-04-4.49134576E-04
30  2-2.15801765E-03 4.18719840E-04-1.19039445E-03-3.29812091E-02-1.52467283E-03
30  3 1.04034549E-02-1.98252362E-03 1.01802514E-04-1.17727717E-04 6.39672757E-05
30  4-2.18902961E-05 2.91088029E-04 1.95905757E-04-8.01780349E-03-1.04872265E-02
30  5-2.99513762E-02-6.44623499E-03-3.89955671E-02-4.51830823E-02 2.69785400E-03
30  6 1.39174609E-02-1.90082736E-03 1.45204174E-02 5.53423544E-02 8.68157895E-02
30  7 8.87063255E-04-6.12061575E-03 9.63183895E-03 6.56386373E-05 1.42481296E-04
30  8 9.93579635E-04-2.88596159E-03-2.43261807E-02 1.46351860E-02
31  1-4.02549359E-04-2.98242096E-05 9.56895722E-04 2.16943375E-03 7.08591543E-04
31  2-1.42389953E-03 1.64108417E-04-1.96063374E-03-4.80917143E-03-9.47114512E-04
31  3 3.15156934E-03 1.34217592E-03-6.39822639E-04 2.86345674E-04-5.99513948E-06
31  4 1.23136330E-04 2.89847636E-04-1.59958996E-04-4.09961394E-01-2.09921177E-01
31  5-5.88128270E-02 3.07024016E-04 2.65307238E-03-1.27451225E-03 8.37685718E-06
31  6 1.94767408E-04-1.65860189E-04-2.09949101E-03-1.44763297E-03 8.87063255E-04
31  7 4.09959439E-01 2.06752233E-01 6.25514649E-02 1.49201293E-03-2.69168311E-04
31  8 1.13557060E-04-1.73159616E-04-4.07990853E-04 8.01067633E-04
32  1-2.11402937E-04-7.29247663E-04 3.44640476E-04 6.23882839E-04 2.12464522E-03
32  2-3.16669936E-05-7.09237036E-03-3.30754691E-03-1.58476545E-03 1.26648252E-03
32  3-6.85283600E-04 1.75454123E-04-3.15212716E-05 4.58485067E-04-2.92942904E-04
32  4 5.70704524E-04-5.82185508E-04 5.63042988E-04-1.87018851E-01-1.12089255E-01
32  5-2.56009209E-02 2.95647218E-03-2.32953573E-03 2.57089822E-03-5.20753120E-04
32  6-1.43395224E-03-2.10706386E-05-1.67382260E-02-2.54490288E-03-6.12061575E-03
32  7 2.06752233E-01 1.21640827E-01 3.04459603E-02 1.91642745E-04 2.29594899E-04
32  8-3.99092298E-04-7.48292924E-04-7.51643031E-04-4.89211703E-05
33  1 9.49950268E-04 1.00875693E-03 2.44626869E-03-2.05547408E-03-1.48405147E-03
33  2-3.00549319E-03-2.57458685E-02-4.12006784E-03 2.83427542E-03 3.46742871E-03
33  3-2.46309759E-03 1.08063408E-03 1.13144565E-03 9.05404119E-05-8.22835361E-04
33  4-1.97506005E-04 9.05847114E-04-6.44260363E-04-5.21765548E-02-2.42002776E-02
33  5-5.40782424E-02-2.07528106E-03 7.08730153E-03-2.35754250E-03 9.51015370E-05
33  6 1.15781094E-03 3.15066608E-04 1.34445526E-02-6.24573705E-03 9.63183895E-03
33  7 6.25514649E-02 3.04459603E-02 5.23616878E-02 1.42933308E-04-2.07743980E-03
33  8-6.37476169E-03 4.67807466E-04-1.05545946E-04-1.38663608E-03
34  1 5.30615100E-04 5.67346195E-04 9.67698801E-04-1.29685887E-02-4.60746049E-04
34  2-2.88875349E-03-3.27149076E-01 1.19210533E-03-1.48287784E-02-8.74572963E-03
34  3 1.28788838E-02-1.35246475E-03 3.08431968E-04-1.28757036E-03 9.67529780E-04
34  4 9.66127366E-05-4.80760967E-04 3.53293276E-04-1.41511926E-03-1.87343859E-03
34  5-2.99504729E-03 5.95456141E-04 1.41857985E-04-1.36707644E-03 1.72906868E-05
34  6-9.77997831E-05-7.90147434E-05-7.32183334E-04-3.17157955E-04 6.56386373E-05
34  7 1.49201293E-03 1.91642745E-04 1.42933308E-04 3.48488609E-01-1.01607268E-02
34  8 1.87872859E-02-5.18331687E-04-2.93635544E-04 2.22675541E-03
35  1 6.60066400E-04 4.03811849E-04-1.17379805E-04-2.28785648E-02 5.86389471E-04
35  2 4.78998593E-04 1.63642958E-03-4.92229333E-02 4.91974936E-03 4.13167667E-02
35  3-1.45140599E-02 5.01537526E-03-1.53816428E-03-2.27831021E-03 2.68082953E-03
35  4 4.93032351E-04 5.08898565E-04-6.38370614E-04-9.96314810E-03-2.22352929E-03
35  5-6.45719799E-03-6.40495490E-04 5.29858502E-04 1.11634613E-03-1.91075892E-05
35  6 6.20904453E-05 8.19330955E-05 1.89356292E-04-4.95715315E-04 1.42481296E-04
35  7-2.69168311E-04 2.29594899E-04-2.07743980E-03-1.01607268E-02 6.60590258E-02
35  8-2.53490841E-03 1.17372407E-03 3.54878474E-04-2.61041664E-03
36  1-1.27651054E-04-3.51953048E-04 1.34936189E-03 2.24920830E-02 4.30668051E-03
36  2 4.40035049E-03-1.34782987E-02 1.49331810E-02-4.47610160E-02-1.05543700E-03
36  3-3.21940082E-03 1.02845739E-02 1.52674461E-03 2.56189423E-03-2.01124137E-03
36  4-5.66086710E-04-7.78982351E-05-2.23838243E-04-2.69039269E-02-1.40251448E-02
36  5-2.01890234E-02 1.53230763E-04 1.66161591E-03-2.90177532E-04 8.03474140E-05
36  6 1.06842745E-04 9.52724492E-05-1.18362493E-03-2.79228703E-03 9.93579635E-04
36  7 1.13557060E-04-3.99092298E-04-6.37476169E-03 1.87872859E-02-2.53490841E-03
36  8 5.66595052E-02 1.61776508E-04-1.69529741E-04 6.74147262E-05
37  1-1.20090197E-03 9.90839962E-04-1.38160302E-05-7.05621028E-04 1.56722659E-03
37  2 1.51237197E-03 6.89180019E-03-7.61435598E-03-1.18454117E-02-2.40075528E-02
37  3 1.06434986E-02-7.86050337E-03-2.58351154E-06-2.38578258E-06-1.62060822E-05
37  4 4.19909535E-04 3.91959955E-04-3.87135171E-04 2.93608630E-04 1.58296269E-03
37  5 7.35661034E-03-5.82542454E-02 3.30305417E-02 4.98148651E-02 3.92914460E-03
37  6-9.10508817E-03-1.73278657E-02 5.78702284E-03 5.97098372E-03-2.88596159E-03
37  7-1.73159616E-04-7.48292924E-04 4.67807466E-04-5.18331687E-04 1.17372407E-03
37  8 1.61776508E-04 6.75409102E-02-3.78816144E-02-1.89765317E-02
38  1 1.06889939E-03-6.24796986E-04-6.55625937E-04 1.27095087E-03-3.17450416E-04
38  2 8.93925607E-04 1.41349453E-03-2.32784906E-02 1.36613635E-02 3.02905247E-03
38  3-1.16105598E-02-1.27377175E-02-2.28412627E-05 1.77304778E-04-6.88002625E-05
38  4-1.06541848E-04 2.63148321E-05-1.17801693E-04-1.92580336E-03 4.11145822E-03
38  5 5.10025612E-03 3.10709308E-02-6.41428279E-02-4.79774586E-02-5.77282961E-03
38  6 2.97504438E-03 1.31745098E-02 8.55792883E-03-1.09594415E-02-2.43261807E-02
38  7-4.07990853E-04-7.51643031E-04-1.05545946E-04-2.93635544E-04 3.54878474E-04
38  8-1.69529741E-04-3.78816144E-02 1.04040210E-01 5.33286054E-02
39  1 2.77212168E-04-2.54713720E-04 1.51620142E-04 1.36898292E-03-9.44892054E-03
39  2-3.42809179E-03-1.63131524E-02 4.68360817E-02 1.98309017E-02 1.77347522E-03
39  3-3.96333646E-02 3.58743623E-02 1.20152263E-04 2.07189625E-04 3.34720551E-05
39  4-8.80551172E-04-1.95763821E-03 1.83919065E-03 6.46656962E-04 5.71701159E-03
39  5-2.69696973E-02 2.59093020E-02-1.27895548E-02-1.24076897E-01 2.02424575E-03
39  6 2.72782514E-03-6.92117094E-03 1.02238499E-03-4.20731838E-02 1.46351860E-02
39  7 8.01067633E-04-4.89211703E-05-1.38663608E-03 2.22675541E-03-2.61041664E-03
39  8 6.74147262E-05-1.89765317E-02 5.33286054E-02 9.03503452E-02
 $END